(set-info :source |printed by MathSAT|)
(declare-fun call_moesi.ite2.next () Int)
(declare-fun call_Sofar.Sofar.next () Bool)
(declare-fun call_moesi.ite23.next () Int)
(declare-fun param_etat_mo4 () Bool)
(declare-fun call_moesi.garde_mo1.next () Bool)
(declare-fun owned_mo.next () Int)
(declare-fun call_moesi.ite6.next () Int)
(declare-fun call_Sofar.flby.next () Bool)
(declare-fun call_moesi.ite17 () Int)
(declare-fun call_moesi.ite33.next () Int)
(declare-fun env.next () Bool)
(declare-fun call_Sofar.flby () Bool)
(declare-fun call_moesi.garde_mo2.next () Bool)
(declare-fun flby.next () Bool)
(declare-fun call_moesi.ite13.next () Int)
(declare-fun shared_mo () Int)
(declare-fun call_moesi.ite25.next () Int)
(declare-fun call_Sofar.Sofar () Bool)
(declare-fun call_moesi.ite16 () Int)
(declare-fun call_moesi.ite20 () Int)
(declare-fun call_moesi.owned_mo () Int)
(declare-fun call_moesi.flby2 () Int)
(declare-fun call_moesi.ite6 () Int)
(declare-fun call_moesi.flby6.next () Int)
(declare-fun call_moesi.modified_mo () Int)
(declare-fun call_moesi.ite27 () Int)
(declare-fun call_moesi.ite11 () Int)
(declare-fun call_moesi.flby3.next () Int)
(declare-fun _OK_ () Bool)
(declare-fun param_etat_mo1 () Bool)
(declare-fun call_moesi.flby4 () Int)
(declare-fun call_moesi.ite20.next () Int)
(declare-fun call_moesi.ite22 () Int)
(declare-fun call_moesi.ite34 () Int)
(declare-fun call_moesi.ite27.next () Int)
(declare-fun call_moesi.invalid_mo.next () Int)
(declare-fun call_moesi.ite.next () Int)
(declare-fun modified_mo.next () Int)
(declare-fun flby () Bool)
(declare-fun call_moesi.ite14.next () Int)
(declare-fun erreur_mo () Bool)
(declare-fun call_moesi.ite24.next () Int)
(declare-fun call_moesi.ite18.next () Int)
(declare-fun call_moesi.ite14 () Int)
(declare-fun call_moesi.ite32.next () Int)
(declare-fun param_etat_mo2.next () Bool)
(declare-fun call_excludes4.excludes.next () Bool)
(declare-fun call_moesi.invalid_mo () Int)
(declare-fun call_moesi.flby6 () Int)
(declare-fun param_etat_mo1.next () Bool)
(declare-fun call_moesi.ite29 () Int)
(declare-fun call_moesi.ite23 () Int)
(declare-fun call_moesi.ite22.next () Int)
(declare-fun call_moesi.ite7 () Int)
(declare-fun call_moesi.ite11.next () Int)
(declare-fun call_moesi.ite7.next () Int)
(declare-fun call_moesi.ite9.next () Int)
(declare-fun call_moesi.flby5.next () Int)
(declare-fun exclusive_mo.next () Int)
(declare-fun call_moesi.ite5 () Int)
(declare-fun param_etat_mo3.next () Bool)
(declare-fun call_excludes4.excludes () Bool)
(declare-fun call_moesi.ite10.next () Int)
(declare-fun call_moesi.flby () Bool)
(declare-fun call_moesi.flby2.next () Int)
(declare-fun call_moesi.flby.next () Bool)
(declare-fun env () Bool)
(declare-fun call_moesi.ite31.next () Int)
(declare-fun call_moesi.ite29.next () Int)
(declare-fun call_moesi.ite12.next () Int)
(declare-fun call_moesi.ite30.next () Int)
(declare-fun call_moesi.ite8 () Int)
(declare-fun param_etat_mo2 () Bool)
(declare-fun call_moesi.ite15.next () Int)
(declare-fun call_moesi.garde_mo4.next () Bool)
(declare-fun owned_mo () Int)
(declare-fun call_moesi.ite21.next () Int)
(declare-fun call_moesi.erreur_mo () Bool)
(declare-fun call_moesi.shared_mo.next () Int)
(declare-fun call_moesi.ite5.next () Int)
(declare-fun call_moesi.ite32 () Int)
(declare-fun call_moesi.ite24 () Int)
(declare-fun param_etat_mo3 () Bool)
(declare-fun call_moesi.ite34.next () Int)
(declare-fun call_moesi.ite4.next () Int)
(declare-fun _OK_.next () Bool)
(declare-fun erreur_mo.next () Bool)
(declare-fun call_moesi.ite16.next () Int)
(declare-fun call_moesi.flby4.next () Int)
(declare-fun call_moesi.garde_mo3.next () Bool)
(declare-fun call_moesi.ite28 () Int)
(declare-fun call_moesi.shared_mo () Int)
(declare-fun call_moesi.ite3 () Int)
(declare-fun shared_mo.next () Int)
(declare-fun call_moesi.ite3.next () Int)
(declare-fun call_moesi.exclusive_mo.next () Int)
(declare-fun call_moesi.ite19.next () Int)
(declare-fun call_moesi.ite30 () Int)
(declare-fun call_moesi.ite10 () Int)
(declare-fun exclusive_mo () Int)
(declare-fun call_moesi.owned_mo.next () Int)
(declare-fun modified_mo () Int)
(declare-fun call_moesi.ite18 () Int)
(declare-fun call_moesi.ite26 () Int)
(declare-fun call_moesi.erreur_mo.next () Bool)
(declare-fun call_moesi.ite8.next () Int)
(declare-fun call_moesi.ite21 () Int)
(declare-fun call_moesi.ite33 () Int)
(declare-fun call_moesi.ite13 () Int)
(declare-fun call_moesi.ite28.next () Int)
(declare-fun invalid_mo () Int)
(declare-fun call_moesi.ite15 () Int)
(declare-fun invalid_mo.next () Int)
(declare-fun call_moesi.modified_mo.next () Int)
(declare-fun param_etat_mo4.next () Bool)
(declare-fun call_moesi.flby3 () Int)
(declare-fun call_moesi.ite9 () Int)
(declare-fun call_moesi.ite2 () Int)
(declare-fun call_moesi.flby5 () Int)
(declare-fun call_moesi.ite26.next () Int)
(declare-fun call_moesi.ite17.next () Int)
(declare-fun call_moesi.exclusive_mo () Int)
(declare-fun call_moesi.ite () Int)
(define-fun .def_1347 () Bool (= call_Sofar.flby.next call_Sofar.Sofar.next))
(define-fun .def_1342 () Bool (and param_etat_mo4.next param_etat_mo3.next))
(define-fun .def_1340 () Bool (and param_etat_mo4.next param_etat_mo2.next))
(define-fun .def_1338 () Bool (and param_etat_mo2.next param_etat_mo3.next))
(define-fun .def_1336 () Bool (and param_etat_mo4.next param_etat_mo1.next))
(define-fun .def_1333 () Bool (and param_etat_mo2.next param_etat_mo1.next))
(define-fun .def_1334 () Bool (and param_etat_mo1.next .def_1333))
(define-fun .def_1335 () Bool (and param_etat_mo3.next .def_1334))
(define-fun .def_1337 () Bool (or .def_1335 .def_1336))
(define-fun .def_1339 () Bool (or .def_1337 .def_1338))
(define-fun .def_1341 () Bool (or .def_1339 .def_1340))
(define-fun .def_1343 () Bool (or .def_1341 .def_1342))
(define-fun .def_1344 () Bool (not .def_1343))
(define-fun .def_1345 () Bool (= call_excludes4.excludes.next .def_1344))
(define-fun .def_1331 () Bool (= call_moesi.flby.next call_moesi.erreur_mo.next))
(define-fun .def_1329 () Bool (= call_moesi.flby6.next call_moesi.owned_mo.next))
(define-fun .def_1327 () Bool (= call_moesi.flby5.next call_moesi.invalid_mo.next))
(define-fun .def_1325 () Bool (= call_moesi.flby4.next call_moesi.shared_mo.next))
(define-fun .def_1323 () Bool (= call_moesi.exclusive_mo.next call_moesi.flby3.next))
(define-fun .def_1321 () Bool (= call_moesi.flby2.next call_moesi.modified_mo.next))
(define-fun .def_1319 () Bool (= env.next call_Sofar.Sofar.next))
(define-fun .def_1316 () Bool (= erreur_mo.next call_moesi.erreur_mo.next))
(define-fun .def_1312 () Bool (= owned_mo.next call_moesi.owned_mo.next))
(define-fun .def_1309 () Bool (= invalid_mo.next call_moesi.invalid_mo.next))
(define-fun .def_1306 () Bool (= shared_mo.next call_moesi.shared_mo.next))
(define-fun .def_1303 () Bool (= exclusive_mo.next call_moesi.exclusive_mo.next))
(define-fun .def_1301 () Bool (= modified_mo.next call_moesi.modified_mo.next))
(define-fun .def_1296 () Bool (not env.next))
(define-fun .def_1297 () Bool (or flby.next .def_1296))
(define-fun .def_1298 () Bool (= _OK_.next .def_1297))
(define-fun .def_1290 () Bool (= call_moesi.ite32.next call_moesi.ite33.next))
(define-fun .def_1291 () Bool (or param_etat_mo3.next .def_1290))
(define-fun .def_1287 () Bool (= call_moesi.ite30.next call_moesi.ite33.next))
(define-fun .def_1266 () Bool (not param_etat_mo3.next))
(define-fun .def_1288 () Bool (or .def_1266 .def_1287))
(define-fun .def_1284 () Bool (= call_moesi.ite26.next call_moesi.ite27.next))
(define-fun .def_1285 () Bool (or param_etat_mo3.next .def_1284))
(define-fun .def_1281 () Bool (= call_moesi.ite24.next call_moesi.ite27.next))
(define-fun .def_1282 () Bool (or .def_1266 .def_1281))
(define-fun .def_1278 () Bool (= call_moesi.ite20.next call_moesi.ite21.next))
(define-fun .def_1279 () Bool (or param_etat_mo3.next .def_1278))
(define-fun .def_1275 () Bool (= call_moesi.ite18.next call_moesi.ite21.next))
(define-fun .def_1276 () Bool (or .def_1266 .def_1275))
(define-fun .def_1272 () Bool (= call_moesi.ite13.next call_moesi.ite14.next))
(define-fun .def_1273 () Bool (or param_etat_mo3.next .def_1272))
(define-fun .def_1269 () Bool (= call_moesi.ite11.next call_moesi.ite14.next))
(define-fun .def_1270 () Bool (or .def_1266 .def_1269))
(define-fun .def_1265 () Bool (= call_moesi.ite3.next call_moesi.ite6.next))
(define-fun .def_1267 () Bool (or .def_1265 .def_1266))
(define-fun .def_1262 () Bool (= call_moesi.ite5.next call_moesi.ite6.next))
(define-fun .def_1264 () Bool (or .def_1262 param_etat_mo3.next))
(define-fun .def_1268 () Bool (and .def_1264 .def_1267))
(define-fun .def_1271 () Bool (and .def_1268 .def_1270))
(define-fun .def_1274 () Bool (and .def_1271 .def_1273))
(define-fun .def_1277 () Bool (and .def_1274 .def_1276))
(define-fun .def_1280 () Bool (and .def_1277 .def_1279))
(define-fun .def_1283 () Bool (and .def_1280 .def_1282))
(define-fun .def_1286 () Bool (and .def_1283 .def_1285))
(define-fun .def_1289 () Bool (and .def_1286 .def_1288))
(define-fun .def_1292 () Bool (and .def_1289 .def_1291))
(define-fun .def_1258 () Bool (= call_moesi.ite34.next call_moesi.ite33.next))
(define-fun .def_1259 () Bool (or param_etat_mo1.next .def_1258))
(define-fun .def_1254 () Bool (= call_moesi.ite29.next call_moesi.ite34.next))
(define-fun .def_1231 () Bool (not param_etat_mo1.next))
(define-fun .def_1255 () Bool (or .def_1231 .def_1254))
(define-fun .def_1251 () Bool (= call_moesi.ite28.next call_moesi.ite27.next))
(define-fun .def_1252 () Bool (or param_etat_mo1.next .def_1251))
(define-fun .def_1247 () Bool (= call_moesi.ite23.next call_moesi.ite28.next))
(define-fun .def_1248 () Bool (or .def_1231 .def_1247))
(define-fun .def_1244 () Bool (= call_moesi.ite22.next call_moesi.ite21.next))
(define-fun .def_1245 () Bool (or param_etat_mo1.next .def_1244))
(define-fun .def_1240 () Bool (= call_moesi.ite17.next call_moesi.ite22.next))
(define-fun .def_1241 () Bool (or .def_1231 .def_1240))
(define-fun .def_1237 () Bool (= call_moesi.ite16.next call_moesi.ite15.next))
(define-fun .def_1238 () Bool (or param_etat_mo1.next .def_1237))
(define-fun .def_1234 () Bool (= call_moesi.ite9.next call_moesi.ite16.next))
(define-fun .def_1235 () Bool (or .def_1231 .def_1234))
(define-fun .def_1230 () Bool (= call_moesi.ite.next call_moesi.ite8.next))
(define-fun .def_1232 () Bool (or .def_1230 .def_1231))
(define-fun .def_1227 () Bool (= call_moesi.ite8.next call_moesi.ite7.next))
(define-fun .def_1229 () Bool (or .def_1227 param_etat_mo1.next))
(define-fun .def_1233 () Bool (and .def_1229 .def_1232))
(define-fun .def_1236 () Bool (and .def_1233 .def_1235))
(define-fun .def_1239 () Bool (and .def_1236 .def_1238))
(define-fun .def_1242 () Bool (and .def_1239 .def_1241))
(define-fun .def_1246 () Bool (and .def_1242 .def_1245))
(define-fun .def_1249 () Bool (and .def_1246 .def_1248))
(define-fun .def_1253 () Bool (and .def_1249 .def_1252))
(define-fun .def_1256 () Bool (and .def_1253 .def_1255))
(define-fun .def_1260 () Bool (and .def_1256 .def_1259))
(define-fun .def_1224 () Bool (= call_moesi.ite15.next call_moesi.ite14.next))
(define-fun .def_1225 () Bool (or param_etat_mo2.next .def_1224))
(define-fun .def_1220 () Bool (= call_moesi.ite10.next call_moesi.ite15.next))
(define-fun .def_1216 () Bool (not param_etat_mo2.next))
(define-fun .def_1221 () Bool (or .def_1216 .def_1220))
(define-fun .def_1215 () Bool (= call_moesi.ite2.next call_moesi.ite7.next))
(define-fun .def_1217 () Bool (or .def_1215 .def_1216))
(define-fun .def_1212 () Bool (= call_moesi.ite7.next call_moesi.ite6.next))
(define-fun .def_1214 () Bool (or .def_1212 param_etat_mo2.next))
(define-fun .def_1218 () Bool (and .def_1214 .def_1217))
(define-fun .def_1222 () Bool (and .def_1218 .def_1221))
(define-fun .def_1226 () Bool (and .def_1222 .def_1225))
(define-fun .def_1261 () Bool (and .def_1226 .def_1260))
(define-fun .def_1293 () Bool (and .def_1261 .def_1292))
(define-fun .def_1299 () Bool (and .def_1293 .def_1298))
(define-fun .def_1302 () Bool (and .def_1299 .def_1301))
(define-fun .def_1304 () Bool (and .def_1302 .def_1303))
(define-fun .def_1307 () Bool (and .def_1304 .def_1306))
(define-fun .def_1310 () Bool (and .def_1307 .def_1309))
(define-fun .def_1313 () Bool (and .def_1310 .def_1312))
(define-fun .def_1317 () Bool (and .def_1313 .def_1316))
(define-fun .def_1320 () Bool (and .def_1317 .def_1319))
(define-fun .def_1322 () Bool (and .def_1320 .def_1321))
(define-fun .def_1324 () Bool (and .def_1322 .def_1323))
(define-fun .def_1326 () Bool (and .def_1324 .def_1325))
(define-fun .def_1328 () Bool (and .def_1326 .def_1327))
(define-fun .def_1330 () Bool (and .def_1328 .def_1329))
(define-fun .def_1332 () Bool (and .def_1330 .def_1331))
(define-fun .def_1346 () Bool (and .def_1332 .def_1345))
(define-fun .def_1348 () Bool (and .def_1346 .def_1347))
(define-fun .def_929 () Bool (= call_Sofar.flby call_Sofar.Sofar))
(define-fun .def_924 () Bool (and param_etat_mo4 param_etat_mo3))
(define-fun .def_922 () Bool (and param_etat_mo4 param_etat_mo2))
(define-fun .def_920 () Bool (and param_etat_mo2 param_etat_mo3))
(define-fun .def_918 () Bool (and param_etat_mo4 param_etat_mo1))
(define-fun .def_915 () Bool (and param_etat_mo2 param_etat_mo1))
(define-fun .def_916 () Bool (and param_etat_mo1 .def_915))
(define-fun .def_917 () Bool (and param_etat_mo3 .def_916))
(define-fun .def_919 () Bool (or .def_917 .def_918))
(define-fun .def_921 () Bool (or .def_919 .def_920))
(define-fun .def_923 () Bool (or .def_921 .def_922))
(define-fun .def_925 () Bool (or .def_923 .def_924))
(define-fun .def_926 () Bool (not .def_925))
(define-fun .def_927 () Bool (= call_excludes4.excludes .def_926))
(define-fun .def_913 () Bool (= call_moesi.flby call_moesi.erreur_mo))
(define-fun .def_911 () Bool (= call_moesi.flby6 call_moesi.owned_mo))
(define-fun .def_909 () Bool (= call_moesi.flby5 call_moesi.invalid_mo))
(define-fun .def_907 () Bool (= call_moesi.flby4 call_moesi.shared_mo))
(define-fun .def_905 () Bool (= call_moesi.flby3 call_moesi.exclusive_mo))
(define-fun .def_903 () Bool (= call_moesi.flby2 call_moesi.modified_mo))
(define-fun .def_901 () Bool (= env call_Sofar.Sofar))
(define-fun .def_898 () Bool (= erreur_mo call_moesi.erreur_mo))
(define-fun .def_894 () Bool (= owned_mo call_moesi.owned_mo))
(define-fun .def_890 () Bool (= invalid_mo call_moesi.invalid_mo))
(define-fun .def_886 () Bool (= shared_mo call_moesi.shared_mo))
(define-fun .def_882 () Bool (= exclusive_mo call_moesi.exclusive_mo))
(define-fun .def_878 () Bool (= modified_mo call_moesi.modified_mo))
(define-fun .def_872 () Bool (not env))
(define-fun .def_873 () Bool (or flby .def_872))
(define-fun .def_874 () Bool (= _OK_ .def_873))
(define-fun .def_866 () Bool (= call_moesi.ite32 call_moesi.ite33))
(define-fun .def_867 () Bool (or param_etat_mo3 .def_866))
(define-fun .def_863 () Bool (= call_moesi.ite30 call_moesi.ite33))
(define-fun .def_841 () Bool (not param_etat_mo3))
(define-fun .def_864 () Bool (or .def_841 .def_863))
(define-fun .def_860 () Bool (= call_moesi.ite26 call_moesi.ite27))
(define-fun .def_861 () Bool (or param_etat_mo3 .def_860))
(define-fun .def_857 () Bool (= call_moesi.ite27 call_moesi.ite24))
(define-fun .def_858 () Bool (or .def_841 .def_857))
(define-fun .def_853 () Bool (= call_moesi.ite20 call_moesi.ite21))
(define-fun .def_854 () Bool (or param_etat_mo3 .def_853))
(define-fun .def_850 () Bool (= call_moesi.ite18 call_moesi.ite21))
(define-fun .def_851 () Bool (or .def_841 .def_850))
(define-fun .def_847 () Bool (= call_moesi.ite13 call_moesi.ite14))
(define-fun .def_848 () Bool (or param_etat_mo3 .def_847))
(define-fun .def_844 () Bool (= call_moesi.ite11 call_moesi.ite14))
(define-fun .def_845 () Bool (or .def_841 .def_844))
(define-fun .def_840 () Bool (= call_moesi.ite3 call_moesi.ite6))
(define-fun .def_842 () Bool (or .def_840 .def_841))
(define-fun .def_837 () Bool (= call_moesi.ite5 call_moesi.ite6))
(define-fun .def_839 () Bool (or .def_837 param_etat_mo3))
(define-fun .def_843 () Bool (and .def_839 .def_842))
(define-fun .def_846 () Bool (and .def_843 .def_845))
(define-fun .def_849 () Bool (and .def_846 .def_848))
(define-fun .def_852 () Bool (and .def_849 .def_851))
(define-fun .def_855 () Bool (and .def_852 .def_854))
(define-fun .def_859 () Bool (and .def_855 .def_858))
(define-fun .def_862 () Bool (and .def_859 .def_861))
(define-fun .def_865 () Bool (and .def_862 .def_864))
(define-fun .def_868 () Bool (and .def_865 .def_867))
(define-fun .def_833 () Bool (= call_moesi.ite34 call_moesi.ite33))
(define-fun .def_834 () Bool (or param_etat_mo1 .def_833))
(define-fun .def_829 () Bool (= call_moesi.ite29 call_moesi.ite34))
(define-fun .def_799 () Bool (not param_etat_mo1))
(define-fun .def_830 () Bool (or .def_799 .def_829))
(define-fun .def_824 () Bool (= call_moesi.ite28 call_moesi.ite27))
(define-fun .def_825 () Bool (or param_etat_mo1 .def_824))
(define-fun .def_820 () Bool (= call_moesi.ite23 call_moesi.ite28))
(define-fun .def_821 () Bool (or .def_799 .def_820))
(define-fun .def_815 () Bool (= call_moesi.ite22 call_moesi.ite21))
(define-fun .def_816 () Bool (or param_etat_mo1 .def_815))
(define-fun .def_811 () Bool (= call_moesi.ite17 call_moesi.ite22))
(define-fun .def_812 () Bool (or .def_799 .def_811))
(define-fun .def_806 () Bool (= call_moesi.ite15 call_moesi.ite16))
(define-fun .def_807 () Bool (or param_etat_mo1 .def_806))
(define-fun .def_803 () Bool (= call_moesi.ite9 call_moesi.ite16))
(define-fun .def_804 () Bool (or .def_799 .def_803))
(define-fun .def_798 () Bool (= call_moesi.ite call_moesi.ite8))
(define-fun .def_800 () Bool (or .def_798 .def_799))
(define-fun .def_795 () Bool (= call_moesi.ite7 call_moesi.ite8))
(define-fun .def_797 () Bool (or .def_795 param_etat_mo1))
(define-fun .def_801 () Bool (and .def_797 .def_800))
(define-fun .def_805 () Bool (and .def_801 .def_804))
(define-fun .def_808 () Bool (and .def_805 .def_807))
(define-fun .def_813 () Bool (and .def_808 .def_812))
(define-fun .def_817 () Bool (and .def_813 .def_816))
(define-fun .def_822 () Bool (and .def_817 .def_821))
(define-fun .def_826 () Bool (and .def_822 .def_825))
(define-fun .def_831 () Bool (and .def_826 .def_830))
(define-fun .def_835 () Bool (and .def_831 .def_834))
(define-fun .def_791 () Bool (= call_moesi.ite15 call_moesi.ite14))
(define-fun .def_792 () Bool (or param_etat_mo2 .def_791))
(define-fun .def_787 () Bool (= call_moesi.ite10 call_moesi.ite15))
(define-fun .def_782 () Bool (not param_etat_mo2))
(define-fun .def_788 () Bool (or .def_782 .def_787))
(define-fun .def_781 () Bool (= call_moesi.ite7 call_moesi.ite2))
(define-fun .def_783 () Bool (or .def_781 .def_782))
(define-fun .def_777 () Bool (= call_moesi.ite7 call_moesi.ite6))
(define-fun .def_779 () Bool (or .def_777 param_etat_mo2))
(define-fun .def_784 () Bool (and .def_779 .def_783))
(define-fun .def_789 () Bool (and .def_784 .def_788))
(define-fun .def_793 () Bool (and .def_789 .def_792))
(define-fun .def_836 () Bool (and .def_793 .def_835))
(define-fun .def_869 () Bool (and .def_836 .def_868))
(define-fun .def_875 () Bool (and .def_869 .def_874))
(define-fun .def_879 () Bool (and .def_875 .def_878))
(define-fun .def_883 () Bool (and .def_879 .def_882))
(define-fun .def_887 () Bool (and .def_883 .def_886))
(define-fun .def_891 () Bool (and .def_887 .def_890))
(define-fun .def_895 () Bool (and .def_891 .def_894))
(define-fun .def_899 () Bool (and .def_895 .def_898))
(define-fun .def_902 () Bool (and .def_899 .def_901))
(define-fun .def_904 () Bool (and .def_902 .def_903))
(define-fun .def_906 () Bool (and .def_904 .def_905))
(define-fun .def_908 () Bool (and .def_906 .def_907))
(define-fun .def_910 () Bool (and .def_908 .def_909))
(define-fun .def_912 () Bool (and .def_910 .def_911))
(define-fun .def_914 () Bool (and .def_912 .def_913))
(define-fun .def_928 () Bool (and .def_914 .def_927))
(define-fun .def_930 () Bool (and .def_928 .def_929))
(define-fun .def_1349 () Bool (and .def_930 .def_1348))
(define-fun .def_1206 () Bool (and call_Sofar.Sofar call_excludes4.excludes.next))
(define-fun .def_1208 () Bool (= .def_1206 call_Sofar.flby.next))
(define-fun .def_1203 () Bool (= call_moesi.ite34.next call_moesi.flby6.next))
(define-fun .def_1199 () Bool (= call_moesi.ite28.next call_moesi.flby5.next))
(define-fun .def_1195 () Bool (= call_moesi.ite22.next call_moesi.flby4.next))
(define-fun .def_1191 () Bool (= call_moesi.ite16.next call_moesi.flby3.next))
(define-fun .def_1187 () Bool (= call_moesi.ite8.next call_moesi.flby2.next))
(define-fun .def_1181 () Bool (<= 2 call_moesi.exclusive_mo.next))
(define-fun .def_1183 () Bool (= .def_1181 call_moesi.flby.next))
(define-fun .def_1140 () Bool (<= 1 call_moesi.invalid_mo))
(define-fun .def_1177 () Bool (= call_moesi.garde_mo4.next .def_1140))
(define-fun .def_1174 () Bool (= call_moesi.ite31.next 0))
(define-fun .def_1057 () Bool (not call_moesi.garde_mo4.next))
(define-fun .def_1175 () Bool (or .def_1057 .def_1174))
(define-fun .def_1171 () Bool (= call_moesi.ite19.next 0))
(define-fun .def_1172 () Bool (or .def_1057 .def_1171))
(define-fun .def_1168 () Bool (= call_moesi.ite4.next 0))
(define-fun .def_1169 () Bool (or .def_1057 .def_1168))
(define-fun .def_1166 () Bool (= call_moesi.ite12.next 1))
(define-fun .def_1167 () Bool (or .def_1057 .def_1166))
(define-fun .def_1170 () Bool (and .def_1167 .def_1169))
(define-fun .def_1173 () Bool (and .def_1170 .def_1172))
(define-fun .def_1176 () Bool (and .def_1173 .def_1175))
(define-fun .def_1178 () Bool (and .def_1176 .def_1177))
(define-fun .def_1160 () Int (* (- 1) call_moesi.owned_mo))
(define-fun .def_1161 () Int (+ call_moesi.shared_mo .def_1160))
(define-fun .def_1162 () Bool (<= 1 .def_1161))
(define-fun .def_1163 () Bool (= call_moesi.garde_mo3.next .def_1162))
(define-fun .def_1155 () Bool (= call_moesi.ite30.next 0))
(define-fun .def_1042 () Bool (not call_moesi.garde_mo3.next))
(define-fun .def_1156 () Bool (or .def_1042 .def_1155))
(define-fun .def_1152 () Bool (= call_moesi.ite18.next 0))
(define-fun .def_1153 () Bool (or .def_1042 .def_1152))
(define-fun .def_1149 () Bool (= call_moesi.ite3.next 0))
(define-fun .def_1150 () Bool (or .def_1042 .def_1149))
(define-fun .def_1147 () Bool (= call_moesi.ite11.next 1))
(define-fun .def_1148 () Bool (or .def_1042 .def_1147))
(define-fun .def_1151 () Bool (and .def_1148 .def_1150))
(define-fun .def_1154 () Bool (and .def_1151 .def_1153))
(define-fun .def_1157 () Bool (and .def_1154 .def_1156))
(define-fun .def_1164 () Bool (and .def_1157 .def_1163))
(define-fun .def_1144 () Bool (<= 1 call_moesi.exclusive_mo))
(define-fun .def_1145 () Bool (= call_moesi.garde_mo2.next .def_1144))
(define-fun .def_1141 () Bool (= call_moesi.garde_mo1.next .def_1140))
(define-fun .def_1137 () Bool (= call_moesi.ite.next 0))
(define-fun .def_1067 () Bool (not call_moesi.garde_mo1.next))
(define-fun .def_1138 () Bool (or .def_1067 .def_1137))
(define-fun .def_1135 () Bool (= call_moesi.ite9.next 0))
(define-fun .def_1136 () Bool (or .def_1067 .def_1135))
(define-fun .def_1139 () Bool (and .def_1136 .def_1138))
(define-fun .def_1142 () Bool (and .def_1139 .def_1141))
(define-fun .def_1131 () Bool (= call_moesi.owned_mo call_moesi.ite31.next))
(define-fun .def_1132 () Bool (or call_moesi.garde_mo4.next .def_1131))
(define-fun .def_1128 () Bool (= call_moesi.owned_mo call_moesi.ite29.next))
(define-fun .def_1129 () Bool (or call_moesi.garde_mo1.next .def_1128))
(define-fun .def_1126 () Bool (= call_moesi.owned_mo call_moesi.ite30.next))
(define-fun .def_1127 () Bool (or call_moesi.garde_mo3.next .def_1126))
(define-fun .def_1130 () Bool (and .def_1127 .def_1129))
(define-fun .def_1133 () Bool (and .def_1130 .def_1132))
(define-fun .def_1121 () Bool (= call_moesi.invalid_mo call_moesi.ite25.next))
(define-fun .def_1122 () Bool (or call_moesi.garde_mo4.next .def_1121))
(define-fun .def_1118 () Bool (= call_moesi.invalid_mo call_moesi.ite24.next))
(define-fun .def_1119 () Bool (or call_moesi.garde_mo3.next .def_1118))
(define-fun .def_1113 () Int (* (- 1) call_moesi.ite23.next))
(define-fun .def_1114 () Int (+ call_moesi.invalid_mo .def_1113))
(define-fun .def_1115 () Bool (= .def_1114 1))
(define-fun .def_1116 () Bool (or .def_1067 .def_1115))
(define-fun .def_1111 () Bool (= call_moesi.invalid_mo call_moesi.ite23.next))
(define-fun .def_1112 () Bool (or call_moesi.garde_mo1.next .def_1111))
(define-fun .def_1117 () Bool (and .def_1112 .def_1116))
(define-fun .def_1120 () Bool (and .def_1117 .def_1119))
(define-fun .def_1123 () Bool (and .def_1120 .def_1122))
(define-fun .def_1106 () Bool (= call_moesi.shared_mo call_moesi.ite19.next))
(define-fun .def_1107 () Bool (or call_moesi.garde_mo4.next .def_1106))
(define-fun .def_1103 () Bool (= call_moesi.shared_mo call_moesi.ite17.next))
(define-fun .def_1104 () Bool (or call_moesi.garde_mo1.next .def_1103))
(define-fun .def_1101 () Bool (= call_moesi.shared_mo call_moesi.ite18.next))
(define-fun .def_1102 () Bool (or call_moesi.garde_mo3.next .def_1101))
(define-fun .def_1105 () Bool (and .def_1102 .def_1104))
(define-fun .def_1108 () Bool (and .def_1105 .def_1107))
(define-fun .def_1091 () Int (* (- 1) call_moesi.ite17.next))
(define-fun .def_1094 () Int (+ call_moesi.shared_mo .def_1091))
(define-fun .def_1095 () Int (+ call_moesi.exclusive_mo .def_1094))
(define-fun .def_1096 () Bool (= .def_1095 (- 1)))
(define-fun .def_1097 () Bool (or .def_1067 .def_1096))
(define-fun .def_1087 () Bool (= call_moesi.exclusive_mo call_moesi.ite12.next))
(define-fun .def_1088 () Bool (or call_moesi.garde_mo4.next .def_1087))
(define-fun .def_1084 () Bool (= call_moesi.exclusive_mo call_moesi.ite11.next))
(define-fun .def_1085 () Bool (or call_moesi.garde_mo3.next .def_1084))
(define-fun .def_1080 () Bool (= call_moesi.exclusive_mo call_moesi.ite10.next))
(define-fun .def_1081 () Bool (or call_moesi.garde_mo2.next .def_1080))
(define-fun .def_1077 () Bool (= call_moesi.exclusive_mo call_moesi.ite9.next))
(define-fun .def_1078 () Bool (or call_moesi.garde_mo1.next .def_1077))
(define-fun .def_1072 () Int (* (- 1) call_moesi.ite10.next))
(define-fun .def_1073 () Int (+ call_moesi.exclusive_mo .def_1072))
(define-fun .def_1074 () Bool (= .def_1073 1))
(define-fun .def_1010 () Bool (not call_moesi.garde_mo2.next))
(define-fun .def_1075 () Bool (or .def_1010 .def_1074))
(define-fun .def_1079 () Bool (and .def_1075 .def_1078))
(define-fun .def_1082 () Bool (and .def_1079 .def_1081))
(define-fun .def_1086 () Bool (and .def_1082 .def_1085))
(define-fun .def_1089 () Bool (and .def_1086 .def_1088))
(define-fun .def_1098 () Bool (and .def_1089 .def_1097))
(define-fun .def_1061 () Int (* (- 1) call_moesi.ite29.next))
(define-fun .def_1064 () Int (+ call_moesi.owned_mo .def_1061))
(define-fun .def_1065 () Int (+ call_moesi.modified_mo .def_1064))
(define-fun .def_1066 () Bool (= .def_1065 0))
(define-fun .def_1068 () Bool (or .def_1066 .def_1067))
(define-fun .def_1045 () Int (* (- 1) call_moesi.ite25.next))
(define-fun .def_1051 () Int (+ call_moesi.owned_mo .def_1045))
(define-fun .def_1052 () Int (+ call_moesi.invalid_mo .def_1051))
(define-fun .def_1053 () Int (+ call_moesi.shared_mo .def_1052))
(define-fun .def_1054 () Int (+ call_moesi.exclusive_mo .def_1053))
(define-fun .def_1055 () Int (+ call_moesi.modified_mo .def_1054))
(define-fun .def_1056 () Bool (= .def_1055 1))
(define-fun .def_1058 () Bool (or .def_1056 .def_1057))
(define-fun .def_1030 () Int (* (- 1) call_moesi.ite24.next))
(define-fun .def_1036 () Int (+ call_moesi.owned_mo .def_1030))
(define-fun .def_1037 () Int (+ call_moesi.invalid_mo .def_1036))
(define-fun .def_1038 () Int (+ call_moesi.shared_mo .def_1037))
(define-fun .def_1039 () Int (+ call_moesi.exclusive_mo .def_1038))
(define-fun .def_1040 () Int (+ call_moesi.modified_mo .def_1039))
(define-fun .def_1041 () Bool (= .def_1040 1))
(define-fun .def_1043 () Bool (or .def_1041 .def_1042))
(define-fun .def_1025 () Bool (= call_moesi.modified_mo call_moesi.ite4.next))
(define-fun .def_1027 () Bool (or .def_1025 call_moesi.garde_mo4.next))
(define-fun .def_1021 () Bool (= call_moesi.modified_mo call_moesi.ite3.next))
(define-fun .def_1023 () Bool (or .def_1021 call_moesi.garde_mo3.next))
(define-fun .def_1017 () Bool (= call_moesi.modified_mo call_moesi.ite2.next))
(define-fun .def_1018 () Bool (or call_moesi.garde_mo2.next .def_1017))
(define-fun .def_1013 () Bool (= call_moesi.modified_mo call_moesi.ite.next))
(define-fun .def_1015 () Bool (or .def_1013 call_moesi.garde_mo1.next))
(define-fun .def_1006 () Int (* (- 1) call_moesi.ite2.next))
(define-fun .def_1007 () Int (+ call_moesi.modified_mo .def_1006))
(define-fun .def_1008 () Bool (= .def_1007 (- 1)))
(define-fun .def_1011 () Bool (or .def_1008 .def_1010))
(define-fun .def_1016 () Bool (and .def_1011 .def_1015))
(define-fun .def_1019 () Bool (and .def_1016 .def_1018))
(define-fun .def_1024 () Bool (and .def_1019 .def_1023))
(define-fun .def_1028 () Bool (and .def_1024 .def_1027))
(define-fun .def_1044 () Bool (and .def_1028 .def_1043))
(define-fun .def_1059 () Bool (and .def_1044 .def_1058))
(define-fun .def_1069 () Bool (and .def_1059 .def_1068))
(define-fun .def_1001 () Bool (= call_moesi.owned_mo call_moesi.ite32.next))
(define-fun .def_1002 () Bool (or param_etat_mo4.next .def_1001))
(define-fun .def_998 () Bool (= call_moesi.ite31.next call_moesi.ite32.next))
(define-fun .def_969 () Bool (not param_etat_mo4.next))
(define-fun .def_999 () Bool (or .def_969 .def_998))
(define-fun .def_993 () Bool (= call_moesi.invalid_mo call_moesi.ite26.next))
(define-fun .def_994 () Bool (or param_etat_mo4.next .def_993))
(define-fun .def_990 () Bool (= call_moesi.ite25.next call_moesi.ite26.next))
(define-fun .def_991 () Bool (or .def_969 .def_990))
(define-fun .def_985 () Bool (= call_moesi.shared_mo call_moesi.ite20.next))
(define-fun .def_986 () Bool (or param_etat_mo4.next .def_985))
(define-fun .def_982 () Bool (= call_moesi.ite19.next call_moesi.ite20.next))
(define-fun .def_983 () Bool (or .def_969 .def_982))
(define-fun .def_977 () Bool (= call_moesi.exclusive_mo call_moesi.ite13.next))
(define-fun .def_978 () Bool (or param_etat_mo4.next .def_977))
(define-fun .def_974 () Bool (= call_moesi.ite12.next call_moesi.ite13.next))
(define-fun .def_975 () Bool (or .def_969 .def_974))
(define-fun .def_968 () Bool (= call_moesi.ite5.next call_moesi.ite4.next))
(define-fun .def_970 () Bool (or .def_968 .def_969))
(define-fun .def_964 () Bool (= call_moesi.modified_mo call_moesi.ite5.next))
(define-fun .def_966 () Bool (or .def_964 param_etat_mo4.next))
(define-fun .def_971 () Bool (and .def_966 .def_970))
(define-fun .def_976 () Bool (and .def_971 .def_975))
(define-fun .def_979 () Bool (and .def_976 .def_978))
(define-fun .def_984 () Bool (and .def_979 .def_983))
(define-fun .def_987 () Bool (and .def_984 .def_986))
(define-fun .def_992 () Bool (and .def_987 .def_991))
(define-fun .def_995 () Bool (and .def_992 .def_994))
(define-fun .def_1000 () Bool (and .def_995 .def_999))
(define-fun .def_1003 () Bool (and .def_1000 .def_1002))
(define-fun .def_944 () Int (* (- 1) owned_mo.next))
(define-fun .def_941 () Int (* (- 1) invalid_mo.next))
(define-fun .def_951 () Int (+ .def_941 .def_944))
(define-fun .def_938 () Int (* (- 1) shared_mo.next))
(define-fun .def_952 () Int (+ .def_938 .def_951))
(define-fun .def_935 () Int (* (- 1) exclusive_mo.next))
(define-fun .def_953 () Int (+ .def_935 .def_952))
(define-fun .def_933 () Int (* (- 1) modified_mo.next))
(define-fun .def_954 () Int (+ .def_933 .def_953))
(define-fun .def_955 () Int (+ owned_mo .def_954))
(define-fun .def_956 () Int (+ invalid_mo .def_955))
(define-fun .def_957 () Int (+ shared_mo .def_956))
(define-fun .def_958 () Int (+ exclusive_mo .def_957))
(define-fun .def_959 () Int (+ modified_mo .def_958))
(define-fun .def_960 () Bool (= .def_959 0))
(define-fun .def_962 () Bool (= .def_960 flby.next))
(define-fun .def_1004 () Bool (and .def_962 .def_1003))
(define-fun .def_1070 () Bool (and .def_1004 .def_1069))
(define-fun .def_1099 () Bool (and .def_1070 .def_1098))
(define-fun .def_1109 () Bool (and .def_1099 .def_1108))
(define-fun .def_1124 () Bool (and .def_1109 .def_1123))
(define-fun .def_1134 () Bool (and .def_1124 .def_1133))
(define-fun .def_1143 () Bool (and .def_1134 .def_1142))
(define-fun .def_1146 () Bool (and .def_1143 .def_1145))
(define-fun .def_1165 () Bool (and .def_1146 .def_1164))
(define-fun .def_1179 () Bool (and .def_1165 .def_1178))
(define-fun .def_1184 () Bool (and .def_1179 .def_1183))
(define-fun .def_1188 () Bool (and .def_1184 .def_1187))
(define-fun .def_1192 () Bool (and .def_1188 .def_1191))
(define-fun .def_1196 () Bool (and .def_1192 .def_1195))
(define-fun .def_1200 () Bool (and .def_1196 .def_1199))
(define-fun .def_1204 () Bool (and .def_1200 .def_1203))
(define-fun .def_1209 () Bool (and .def_1204 .def_1208))
(define-fun .def_1350 () Bool (and .def_1209 .def_1349))
(assert .def_1350)
